problems/csplib-prob056/sonet-models/noch/O2/minion/model_6_1-s2ring05-solution000001.solution
language Essence 1.3

letting network be mset({}, {1, 2, 3, 4, 5}, {1, 2, 3, 4, 5}, {1, 2, 4, 6, 7}, {3, 5, 6, 8, 10}, {6, 7, 9, 10})
$ Visualisation for network
$ 
$  1  2  3  4  5
$  1  2  3  4  5
$  1  2  4  6  7
$  3  5  6  8 10
$  6  7  9 10

